db/data/1084123443782557759343024318854386.z3.out
-------------------
2500.113924000
